; Benchmark for LTL-sketching problem
(set-logic QF_UF)
(set-info :status unknown)
(declare-fun z_0_0 () Bool)
(declare-fun z_0_11 () Bool)
(declare-fun z_0_19 () Bool)
(declare-fun z_0_30 () Bool)
(declare-fun z_0_34 () Bool)
(declare-fun z_0_38 () Bool)
(declare-fun z_0_41 () Bool)
(declare-fun z_0_42 () Bool)
(declare-fun z_0_46 () Bool)
(declare-fun z_0_56 () Bool)
(declare-fun z_0_67 () Bool)
(declare-fun z_2_10 () Bool)
(declare-fun z_2_9 () Bool)
(declare-fun z_2_8 () Bool)
(declare-fun z_2_7 () Bool)
(declare-fun z_2_6 () Bool)
(declare-fun z_2_5 () Bool)
(declare-fun z_2_4 () Bool)
(declare-fun z_2_3 () Bool)
(declare-fun z_2_2 () Bool)
(declare-fun z_2_1 () Bool)
(declare-fun z_2_0 () Bool)
(declare-fun z_0_1 () Bool)
(declare-fun z_0_2 () Bool)
(declare-fun z_0_3 () Bool)
(declare-fun z_0_4 () Bool)
(declare-fun z_0_5 () Bool)
(declare-fun z_0_6 () Bool)
(declare-fun z_0_7 () Bool)
(declare-fun z_0_8 () Bool)
(declare-fun z_0_9 () Bool)
(declare-fun z_0_10 () Bool)
(declare-fun z_2_18 () Bool)
(declare-fun z_2_17 () Bool)
(declare-fun z_2_16 () Bool)
(declare-fun z_2_15 () Bool)
(declare-fun z_2_14 () Bool)
(declare-fun z_2_13 () Bool)
(declare-fun z_2_12 () Bool)
(declare-fun z_2_11 () Bool)
(declare-fun z_0_12 () Bool)
(declare-fun z_0_13 () Bool)
(declare-fun z_0_14 () Bool)
(declare-fun z_0_15 () Bool)
(declare-fun z_0_16 () Bool)
(declare-fun z_0_17 () Bool)
(declare-fun z_0_18 () Bool)
(declare-fun z_2_29 () Bool)
(declare-fun z_2_28 () Bool)
(declare-fun z_2_27 () Bool)
(declare-fun z_2_26 () Bool)
(declare-fun z_2_25 () Bool)
(declare-fun z_2_24 () Bool)
(declare-fun z_2_23 () Bool)
(declare-fun z_2_22 () Bool)
(declare-fun z_2_21 () Bool)
(declare-fun z_2_20 () Bool)
(declare-fun z_2_19 () Bool)
(declare-fun z_0_20 () Bool)
(declare-fun z_0_21 () Bool)
(declare-fun z_0_22 () Bool)
(declare-fun z_0_23 () Bool)
(declare-fun z_0_24 () Bool)
(declare-fun z_0_25 () Bool)
(declare-fun z_0_26 () Bool)
(declare-fun z_0_27 () Bool)
(declare-fun z_0_28 () Bool)
(declare-fun z_0_29 () Bool)
(declare-fun z_2_33 () Bool)
(declare-fun z_2_32 () Bool)
(declare-fun z_2_31 () Bool)
(declare-fun z_2_30 () Bool)
(declare-fun z_0_31 () Bool)
(declare-fun z_0_32 () Bool)
(declare-fun z_0_33 () Bool)
(declare-fun z_2_37 () Bool)
(declare-fun z_2_36 () Bool)
(declare-fun z_2_35 () Bool)
(declare-fun z_2_34 () Bool)
(declare-fun z_0_35 () Bool)
(declare-fun z_0_36 () Bool)
(declare-fun z_0_37 () Bool)
(declare-fun z_2_41 () Bool)
(declare-fun z_2_40 () Bool)
(declare-fun z_2_39 () Bool)
(declare-fun z_2_38 () Bool)
(declare-fun z_0_39 () Bool)
(declare-fun z_0_40 () Bool)
(declare-fun z_2_45 () Bool)
(declare-fun z_2_44 () Bool)
(declare-fun z_2_43 () Bool)
(declare-fun z_2_42 () Bool)
(declare-fun z_0_43 () Bool)
(declare-fun z_0_44 () Bool)
(declare-fun z_0_45 () Bool)
(declare-fun z_2_55 () Bool)
(declare-fun z_2_54 () Bool)
(declare-fun z_2_53 () Bool)
(declare-fun z_2_52 () Bool)
(declare-fun z_2_51 () Bool)
(declare-fun z_2_50 () Bool)
(declare-fun z_2_49 () Bool)
(declare-fun z_2_48 () Bool)
(declare-fun z_2_47 () Bool)
(declare-fun z_2_46 () Bool)
(declare-fun z_0_47 () Bool)
(declare-fun z_0_48 () Bool)
(declare-fun z_0_49 () Bool)
(declare-fun z_0_50 () Bool)
(declare-fun z_0_51 () Bool)
(declare-fun z_0_52 () Bool)
(declare-fun z_0_53 () Bool)
(declare-fun z_0_54 () Bool)
(declare-fun z_0_55 () Bool)
(declare-fun z_2_66 () Bool)
(declare-fun z_2_65 () Bool)
(declare-fun z_2_64 () Bool)
(declare-fun z_2_63 () Bool)
(declare-fun z_2_62 () Bool)
(declare-fun z_2_61 () Bool)
(declare-fun z_2_60 () Bool)
(declare-fun z_2_59 () Bool)
(declare-fun z_2_58 () Bool)
(declare-fun z_2_57 () Bool)
(declare-fun z_2_56 () Bool)
(declare-fun z_0_57 () Bool)
(declare-fun z_0_58 () Bool)
(declare-fun z_0_59 () Bool)
(declare-fun z_0_60 () Bool)
(declare-fun z_0_61 () Bool)
(declare-fun z_0_62 () Bool)
(declare-fun z_0_63 () Bool)
(declare-fun z_0_64 () Bool)
(declare-fun z_0_65 () Bool)
(declare-fun z_0_66 () Bool)
(declare-fun z_2_70 () Bool)
(declare-fun z_2_69 () Bool)
(declare-fun z_2_68 () Bool)
(declare-fun z_2_67 () Bool)
(declare-fun z_0_68 () Bool)
(declare-fun z_0_69 () Bool)
(declare-fun z_0_70 () Bool)
(declare-fun x_2_p () Bool)
(declare-fun x_2_-> () Bool)
(declare-fun x_2_U () Bool)
(declare-fun x_2_v () Bool)
(declare-fun x_2_& () Bool)
(declare-fun x_2_X () Bool)
(declare-fun x_2_! () Bool)
(declare-fun x_2_F () Bool)
(declare-fun x_2_G () Bool)
(assert
 z_0_0)
(assert
 z_0_11)
(assert
 z_0_19)
(assert
 z_0_30)
(assert
 z_0_34)
(assert
 z_0_38)
(assert
 (not z_0_41))
(assert
 z_0_42)
(assert
 z_0_46)
(assert
 z_0_56)
(assert
 z_0_67)
(assert
 (let (($x1170 (or z_2_0 z_2_1 z_2_2 z_2_3 z_2_4 z_2_5 z_2_6 z_2_7 z_2_8 z_2_9 z_2_10)))
 (= z_0_0 $x1170)))
(assert
 (let (($x1172 (or z_2_1 z_2_2 z_2_3 z_2_4 z_2_5 z_2_6 z_2_7 z_2_8 z_2_9 z_2_10)))
 (= z_0_1 $x1172)))
(assert
 (let (($x1174 (or z_2_2 z_2_3 z_2_4 z_2_5 z_2_6 z_2_7 z_2_8 z_2_9 z_2_10)))
 (= z_0_2 $x1174)))
(assert
 (= z_0_3 (or z_2_3 z_2_4 z_2_5 z_2_6 z_2_7 z_2_8 z_2_9 z_2_10)))
(assert
 (= z_0_4 (or z_2_4 z_2_5 z_2_6 z_2_7 z_2_8 z_2_9 z_2_10)))
(assert
 (let (($x1180 (or z_2_5 z_2_6 z_2_7 z_2_8 z_2_9 z_2_10)))
 (= z_0_5 $x1180)))
(assert
 (= z_0_6 (or z_2_6 z_2_7 z_2_8 z_2_9 z_2_10 z_2_5)))
(assert
 (= z_0_7 (or z_2_7 z_2_8 z_2_9 z_2_10 z_2_5 z_2_6)))
(assert
 (= z_0_8 (or z_2_8 z_2_9 z_2_10 z_2_5 z_2_6 z_2_7)))
(assert
 (= z_0_9 (or z_2_9 z_2_10 z_2_5 z_2_6 z_2_7 z_2_8)))
(assert
 (= z_0_10 (or z_2_10 z_2_5 z_2_6 z_2_7 z_2_8 z_2_9)))
(assert
 (let (($x1204 (or z_2_11 z_2_12 z_2_13 z_2_14 z_2_15 z_2_16 z_2_17 z_2_18)))
 (= z_0_11 $x1204)))
(assert
 (= z_0_12 (or z_2_12 z_2_13 z_2_14 z_2_15 z_2_16 z_2_17 z_2_18)))
(assert
 (= z_0_13 (or z_2_13 z_2_14 z_2_15 z_2_16 z_2_17 z_2_18)))
(assert
 (let (($x1210 (or z_2_14 z_2_15 z_2_16 z_2_17 z_2_18)))
 (= z_0_14 $x1210)))
(assert
 (= z_0_15 (or z_2_15 z_2_16 z_2_17 z_2_18 z_2_14)))
(assert
 (= z_0_16 (or z_2_16 z_2_17 z_2_18 z_2_14 z_2_15)))
(assert
 (= z_0_17 (or z_2_17 z_2_18 z_2_14 z_2_15 z_2_16)))
(assert
 (= z_0_18 (or z_2_18 z_2_14 z_2_15 z_2_16 z_2_17)))
(assert
 (let (($x1235 (or z_2_19 z_2_20 z_2_21 z_2_22 z_2_23 z_2_24 z_2_25 z_2_26 z_2_27 z_2_28 z_2_29)))
 (= z_0_19 $x1235)))
(assert
 (let (($x1237 (or z_2_20 z_2_21 z_2_22 z_2_23 z_2_24 z_2_25 z_2_26 z_2_27 z_2_28 z_2_29)))
 (= z_0_20 $x1237)))
(assert
 (let (($x1239 (or z_2_21 z_2_22 z_2_23 z_2_24 z_2_25 z_2_26 z_2_27 z_2_28 z_2_29)))
 (= z_0_21 $x1239)))
(assert
 (let (($x1241 (or z_2_22 z_2_23 z_2_24 z_2_25 z_2_26 z_2_27 z_2_28 z_2_29)))
 (= z_0_22 $x1241)))
(assert
 (= z_0_23 (or z_2_23 z_2_24 z_2_25 z_2_26 z_2_27 z_2_28 z_2_29)))
(assert
 (let (($x1245 (or z_2_24 z_2_25 z_2_26 z_2_27 z_2_28 z_2_29)))
 (= z_0_24 $x1245)))
(assert
 (= z_0_25 (or z_2_25 z_2_26 z_2_27 z_2_28 z_2_29 z_2_24)))
(assert
 (= z_0_26 (or z_2_26 z_2_27 z_2_28 z_2_29 z_2_24 z_2_25)))
(assert
 (= z_0_27 (or z_2_27 z_2_28 z_2_29 z_2_24 z_2_25 z_2_26)))
(assert
 (= z_0_28 (or z_2_28 z_2_29 z_2_24 z_2_25 z_2_26 z_2_27)))
(assert
 (= z_0_29 (or z_2_29 z_2_24 z_2_25 z_2_26 z_2_27 z_2_28)))
(assert
 (let (($x1266 (or z_2_30 z_2_31 z_2_32 z_2_33 z_2_23 z_2_24 z_2_25 z_2_26 z_2_27 z_2_28 z_2_29)))
 (= z_0_30 $x1266)))
(assert
 (let (($x1270 (or z_2_31 z_2_32 z_2_33 z_2_23 z_2_24 z_2_25 z_2_26 z_2_27 z_2_28 z_2_29)))
 (= z_0_31 $x1270)))
(assert
 (let (($x1274 (or z_2_32 z_2_33 z_2_23 z_2_24 z_2_25 z_2_26 z_2_27 z_2_28 z_2_29)))
 (= z_0_32 $x1274)))
(assert
 (let (($x1278 (or z_2_33 z_2_23 z_2_24 z_2_25 z_2_26 z_2_27 z_2_28 z_2_29)))
 (= z_0_33 $x1278)))
(assert
 (let (($x1286 (or z_2_34 z_2_35 z_2_36 z_2_37 z_2_18 z_2_14 z_2_15 z_2_16 z_2_17)))
 (= z_0_34 $x1286)))
(assert
 (let (($x1290 (or z_2_35 z_2_36 z_2_37 z_2_18 z_2_14 z_2_15 z_2_16 z_2_17)))
 (= z_0_35 $x1290)))
(assert
 (= z_0_36 (or z_2_36 z_2_37 z_2_18 z_2_14 z_2_15 z_2_16 z_2_17)))
(assert
 (= z_0_37 (or z_2_37 z_2_18 z_2_14 z_2_15 z_2_16 z_2_17)))
(assert
 (= z_0_38 (or z_2_38 z_2_39 z_2_40 z_2_41)))
(assert
 (= z_0_39 (or z_2_39 z_2_40 z_2_41)))
(assert
 (= z_0_40 (or z_2_40 z_2_41)))
(assert
 (= z_0_41 (or z_2_41)))
(assert
 (let (($x1319 (or z_2_42 z_2_43 z_2_44 z_2_45 z_2_17 z_2_18 z_2_14 z_2_15 z_2_16)))
 (= z_0_42 $x1319)))
(assert
 (let (($x1323 (or z_2_43 z_2_44 z_2_45 z_2_17 z_2_18 z_2_14 z_2_15 z_2_16)))
 (= z_0_43 $x1323)))
(assert
 (= z_0_44 (or z_2_44 z_2_45 z_2_17 z_2_18 z_2_14 z_2_15 z_2_16)))
(assert
 (= z_0_45 (or z_2_45 z_2_17 z_2_18 z_2_14 z_2_15 z_2_16)))
(assert
 (let (($x1345 (or z_2_46 z_2_47 z_2_48 z_2_49 z_2_50 z_2_51 z_2_52 z_2_53 z_2_54 z_2_55)))
 (= z_0_46 $x1345)))
(assert
 (let (($x1347 (or z_2_47 z_2_48 z_2_49 z_2_50 z_2_51 z_2_52 z_2_53 z_2_54 z_2_55)))
 (= z_0_47 $x1347)))
(assert
 (let (($x1349 (or z_2_48 z_2_49 z_2_50 z_2_51 z_2_52 z_2_53 z_2_54 z_2_55)))
 (= z_0_48 $x1349)))
(assert
 (= z_0_49 (or z_2_49 z_2_50 z_2_51 z_2_52 z_2_53 z_2_54 z_2_55)))
(assert
 (= z_0_50 (or z_2_50 z_2_51 z_2_52 z_2_53 z_2_54 z_2_55)))
(assert
 (= z_0_51 (or z_2_51 z_2_52 z_2_53 z_2_54 z_2_55)))
(assert
 (let (($x1357 (or z_2_52 z_2_53 z_2_54 z_2_55)))
 (= z_0_52 $x1357)))
(assert
 (= z_0_53 (or z_2_53 z_2_54 z_2_55 z_2_52)))
(assert
 (= z_0_54 (or z_2_54 z_2_55 z_2_52 z_2_53)))
(assert
 (= z_0_55 (or z_2_55 z_2_52 z_2_53 z_2_54)))
(assert
 (let (($x1379 (or z_2_56 z_2_57 z_2_58 z_2_59 z_2_60 z_2_61 z_2_62 z_2_63 z_2_64 z_2_65 z_2_66)))
 (= z_0_56 $x1379)))
(assert
 (let (($x1381 (or z_2_57 z_2_58 z_2_59 z_2_60 z_2_61 z_2_62 z_2_63 z_2_64 z_2_65 z_2_66)))
 (= z_0_57 $x1381)))
(assert
 (let (($x1383 (or z_2_58 z_2_59 z_2_60 z_2_61 z_2_62 z_2_63 z_2_64 z_2_65 z_2_66)))
 (= z_0_58 $x1383)))
(assert
 (let (($x1385 (or z_2_59 z_2_60 z_2_61 z_2_62 z_2_63 z_2_64 z_2_65 z_2_66)))
 (= z_0_59 $x1385)))
(assert
 (= z_0_60 (or z_2_60 z_2_61 z_2_62 z_2_63 z_2_64 z_2_65 z_2_66)))
(assert
 (let (($x1389 (or z_2_61 z_2_62 z_2_63 z_2_64 z_2_65 z_2_66)))
 (= z_0_61 $x1389)))
(assert
 (= z_0_62 (or z_2_62 z_2_63 z_2_64 z_2_65 z_2_66 z_2_61)))
(assert
 (= z_0_63 (or z_2_63 z_2_64 z_2_65 z_2_66 z_2_61 z_2_62)))
(assert
 (= z_0_64 (or z_2_64 z_2_65 z_2_66 z_2_61 z_2_62 z_2_63)))
(assert
 (= z_0_65 (or z_2_65 z_2_66 z_2_61 z_2_62 z_2_63 z_2_64)))
(assert
 (= z_0_66 (or z_2_66 z_2_61 z_2_62 z_2_63 z_2_64 z_2_65)))
(assert
 (let (($x1410 (or z_2_67 z_2_68 z_2_69 z_2_70 z_2_54 z_2_55 z_2_52 z_2_53)))
 (= z_0_67 $x1410)))
(assert
 (= z_0_68 (or z_2_68 z_2_69 z_2_70 z_2_54 z_2_55 z_2_52 z_2_53)))
(assert
 (= z_0_69 (or z_2_69 z_2_70 z_2_54 z_2_55 z_2_52 z_2_53)))
(assert
 (= z_0_70 (or z_2_70 z_2_54 z_2_55 z_2_52 z_2_53)))
(assert
 (and true true))
(assert
 (=> x_2_p z_2_0))
(assert
 (let (($x1449 (not z_2_1)))
 (=> x_2_p $x1449)))
(assert
 (let (($x1452 (not z_2_2)))
 (=> x_2_p $x1452)))
(assert
 (let (($x1455 (not z_2_3)))
 (=> x_2_p $x1455)))
(assert
 (=> x_2_p z_2_4))
(assert
 (=> x_2_p z_2_5))
(assert
 (=> x_2_p z_2_6))
(assert
 (=> x_2_p z_2_7))
(assert
 (=> x_2_p z_2_8))
(assert
 (let (($x1468 (not z_2_9)))
 (=> x_2_p $x1468)))
(assert
 (let (($x1471 (not z_2_10)))
 (=> x_2_p $x1471)))
(assert
 (let (($x1474 (not z_2_11)))
 (=> x_2_p $x1474)))
(assert
 (let (($x1477 (not z_2_12)))
 (=> x_2_p $x1477)))
(assert
 (=> x_2_p z_2_13))
(assert
 (let (($x1482 (not z_2_14)))
 (=> x_2_p $x1482)))
(assert
 (=> x_2_p z_2_15))
(assert
 (=> x_2_p z_2_16))
(assert
 (let (($x1489 (not z_2_17)))
 (=> x_2_p $x1489)))
(assert
 (let (($x1492 (not z_2_18)))
 (=> x_2_p $x1492)))
(assert
 (=> x_2_p z_2_19))
(assert
 (let (($x1497 (not z_2_20)))
 (=> x_2_p $x1497)))
(assert
 (=> x_2_p z_2_21))
(assert
 (=> x_2_p z_2_22))
(assert
 (=> x_2_p z_2_23))
(assert
 (=> x_2_p z_2_24))
(assert
 (let (($x1508 (not z_2_25)))
 (=> x_2_p $x1508)))
(assert
 (let (($x1511 (not z_2_26)))
 (=> x_2_p $x1511)))
(assert
 (let (($x1514 (not z_2_27)))
 (=> x_2_p $x1514)))
(assert
 (=> x_2_p z_2_28))
(assert
 (let (($x1519 (not z_2_29)))
 (=> x_2_p $x1519)))
(assert
 (=> x_2_p z_2_30))
(assert
 (=> x_2_p z_2_31))
(assert
 (=> x_2_p z_2_32))
(assert
 (let (($x1528 (not z_2_33)))
 (=> x_2_p $x1528)))
(assert
 (=> x_2_p z_2_34))
(assert
 (=> x_2_p z_2_35))
(assert
 (let (($x1535 (not z_2_36)))
 (=> x_2_p $x1535)))
(assert
 (=> x_2_p z_2_37))
(assert
 (let (($x1540 (not z_2_38)))
 (=> x_2_p $x1540)))
(assert
 (=> x_2_p z_2_39))
(assert
 (=> x_2_p z_2_40))
(assert
 (let (($x1547 (not z_2_41)))
 (=> x_2_p $x1547)))
(assert
 (=> x_2_p z_2_42))
(assert
 (let (($x1552 (not z_2_43)))
 (=> x_2_p $x1552)))
(assert
 (=> x_2_p z_2_44))
(assert
 (let (($x1557 (not z_2_45)))
 (=> x_2_p $x1557)))
(assert
 (let (($x1560 (not z_2_46)))
 (=> x_2_p $x1560)))
(assert
 (let (($x1563 (not z_2_47)))
 (=> x_2_p $x1563)))
(assert
 (let (($x1566 (not z_2_48)))
 (=> x_2_p $x1566)))
(assert
 (=> x_2_p z_2_49))
(assert
 (let (($x1571 (not z_2_50)))
 (=> x_2_p $x1571)))
(assert
 (let (($x1574 (not z_2_51)))
 (=> x_2_p $x1574)))
(assert
 (=> x_2_p z_2_52))
(assert
 (let (($x1579 (not z_2_53)))
 (=> x_2_p $x1579)))
(assert
 (=> x_2_p z_2_54))
(assert
 (=> x_2_p z_2_55))
(assert
 (=> x_2_p z_2_56))
(assert
 (=> x_2_p z_2_57))
(assert
 (let (($x1590 (not z_2_58)))
 (=> x_2_p $x1590)))
(assert
 (let (($x1593 (not z_2_59)))
 (=> x_2_p $x1593)))
(assert
 (let (($x1596 (not z_2_60)))
 (=> x_2_p $x1596)))
(assert
 (=> x_2_p z_2_61))
(assert
 (let (($x1601 (not z_2_62)))
 (=> x_2_p $x1601)))
(assert
 (let (($x1604 (not z_2_63)))
 (=> x_2_p $x1604)))
(assert
 (let (($x1607 (not z_2_64)))
 (=> x_2_p $x1607)))
(assert
 (=> x_2_p z_2_65))
(assert
 (=> x_2_p z_2_66))
(assert
 (=> x_2_p z_2_67))
(assert
 (let (($x1616 (not z_2_68)))
 (=> x_2_p $x1616)))
(assert
 (let (($x1619 (not z_2_69)))
 (=> x_2_p $x1619)))
(assert
 (=> x_2_p z_2_70))
(assert
 (or x_2_p))
(assert
 (let (($x1444 (not x_2_->)))
 (let (($x1442 (not x_2_U)))
 (let (($x1440 (not x_2_v)))
 (let (($x1438 (not x_2_&)))
 (let (($x1436 (not x_2_X)))
 (let (($x1434 (not x_2_!)))
 (let (($x1432 (not x_2_F)))
 (let (($x1430 (not x_2_G)))
 (and $x1430 $x1432 $x1434 $x1436 $x1438 $x1440 $x1442 $x1444))))))))))
(check-sat)

